13 97 87 57 2 58 
53 40 21 73 72 75 23 67 39 25 55 54 24 29 68 80 
27 69 30 51 9 35 71 65 66 20 32 90 63 10 70 1 
89 18 7 48 82 8 83 60 5 93 99 96 6 
28 50 33 81 34 78 79 3 77 76 12 
52 31 88 62 19 11 64 49 36 47 46 45 17 84 61 85 91 100 37 59 94 
95 92 98 42 14 44 16 86 38 43 15 41 22 74 56 4 26 
